echo 			both
units			metal
dimension		3
boundary		p p p 
atom_style     	CAC 1 1
atom_modify		map array sort 0 0

newton			off
read_data		cacinit.data


variable		u uloop 31 # for NEB per-replica output
pair_style 		CAC/eam
pair_coeff 		* * Cu_u3.eam


group			vac id 252 
delete_atoms	group vac
fix				1 all box/relax iso 0.0 vmax 0.001
min_style		CAC_cg
minimize		0.0 1.0e-30 5000 10000

unfix			1
reset_timestep	0
fix			1 all neb_CAC 1.0
compute			centro all centro/atom fcc
variable		this_u equal $u-1
dump 			1 all cfg 100000 *_${this_u}.cfg mass type xs ys zs c_centro
dump_modify		1 element Cu

min_style 			CAC_fire
neb_CAC 			0.0 1e-12 1000 1000 500 final nebcac.last
