echo		both
units       metal

dimension    3
boundary     p p p

#two CAC element styles currently available
#one has charge and the other does not
#the first number specified is the maximum number
#of nodes an element can have in your input model
#the second is the maximum number of internal 
#degrees of freedom an element can have in the model
atom_style     CAC 1 1 
atom_modify	map array sort 0 0
#region	    box block 0 6 0 6 0 6 units box
#create_box  1 box

newton off
read_data cacinit.data

dump			1 all CACtecplot 20000 CACmesh0.txt

thermo_style custom step pe
thermo 10

pair_style CAC/eam 
pair_coeff * * Cu_u3.eam

fix			1 all box/relax iso 0.0 vmax 0.0001
min_style 	CAC_cg
minimize 1e-14 0.0 1000 10000

group		vac id 252
delete_atoms	group vac

dump			2 all CACtecplot 20000 CACmesh1.txt

# Move atom to vacancy
group		single id 271
displace_atoms	single move -1.8075 -1.8075 0 units box

dump			3 all CACtecplot 20000 CACmesh2.txt

#neigh_modify every 50 delay 0 check no
#fix 1 all nve_CAC 
#run 10

min_style 	CAC_cg
minimize 1e-14 0.0 1000 10000
reset_timestep	0

