units       metal

dimension    3
boundary     s s s 

#two CAC element styles currently available
#one has charge and the other does not
#the first number specified is the maximum number
#of nodes an element can have in your input model
#the second is the maximum number of internal 
#degrees of freedom an element can have in the model
atom_style     CAC 1 1 

#region	    box block 0 6 0 6 0 6 units box
#create_box  1 box

newton off
read_data test.txt

 #create_atoms 1 single 0.1 0.1 0.1 
 #create_atoms 1 single 0.2 0 0 

thermo_style custom step pe
thermo 10

pair_style CAC/eam 
pair_coeff * * Cu_u3.eam
dump          2 all CAC/xyz 50 cac.xyz

#neigh_modify every 50 delay 0 check no
#fix 1 all nve_CAC 
#run 10
min_style	CAC_cg
minimize	1e-14 0.0 1000 10000
